(set-logic HORN)
(declare-datatypes ((Nat_90 0)) (((Z_255 ) (S_90 (unS_92 Nat_90)))))
(declare-fun diseqNat_90 (Nat_90 Nat_90) Bool)
(declare-fun unS_93 (Nat_90 Nat_90) Bool)
(declare-fun isZ_90 (Nat_90) Bool)
(declare-fun isS_90 (Nat_90) Bool)
(assert (forall ((x_2488 Nat_90))
	(unS_93 x_2488 (S_90 x_2488))))
(assert (isZ_90 Z_255))
(assert (forall ((x_2490 Nat_90))
	(isS_90 (S_90 x_2490))))
(assert (forall ((x_2491 Nat_90))
	(diseqNat_90 Z_255 (S_90 x_2491))))
(assert (forall ((x_2492 Nat_90))
	(diseqNat_90 (S_90 x_2492) Z_255)))
(assert (forall ((x_2493 Nat_90) (x_2494 Nat_90))
	(=> (diseqNat_90 x_2493 x_2494)
	    (diseqNat_90 (S_90 x_2493) (S_90 x_2494)))))
(declare-fun add_46 (Nat_90 Nat_90 Nat_90) Bool)
(declare-fun minus_46 (Nat_90 Nat_90 Nat_90) Bool)
(declare-fun le_46 (Nat_90 Nat_90) Bool)
(declare-fun ge_46 (Nat_90 Nat_90) Bool)
(declare-fun lt_46 (Nat_90 Nat_90) Bool)
(declare-fun gt_46 (Nat_90 Nat_90) Bool)
(declare-fun mult_46 (Nat_90 Nat_90 Nat_90) Bool)
(declare-fun div_46 (Nat_90 Nat_90 Nat_90) Bool)
(declare-fun mod_46 (Nat_90 Nat_90 Nat_90) Bool)
(assert (forall ((y_201 Nat_90))
	(add_46 y_201 Z_255 y_201)))
(assert (forall ((x_2464 Nat_90) (y_201 Nat_90) (r_46 Nat_90))
	(=> (add_46 r_46 x_2464 y_201)
	    (add_46 (S_90 r_46) (S_90 x_2464) y_201))))
(assert (forall ((y_201 Nat_90))
	(minus_46 Z_255 Z_255 y_201)))
(assert (forall ((x_2464 Nat_90) (y_201 Nat_90) (r_46 Nat_90))
	(=> (minus_46 r_46 x_2464 y_201)
	    (minus_46 (S_90 r_46) (S_90 x_2464) y_201))))
(assert (forall ((y_201 Nat_90))
	(le_46 Z_255 y_201)))
(assert (forall ((x_2464 Nat_90) (y_201 Nat_90))
	(=> (le_46 x_2464 y_201)
	    (le_46 (S_90 x_2464) (S_90 y_201)))))
(assert (forall ((y_201 Nat_90))
	(ge_46 y_201 Z_255)))
(assert (forall ((x_2464 Nat_90) (y_201 Nat_90))
	(=> (ge_46 x_2464 y_201)
	    (ge_46 (S_90 x_2464) (S_90 y_201)))))
(assert (forall ((y_201 Nat_90))
	(lt_46 Z_255 (S_90 y_201))))
(assert (forall ((x_2464 Nat_90) (y_201 Nat_90))
	(=> (lt_46 x_2464 y_201)
	    (lt_46 (S_90 x_2464) (S_90 y_201)))))
(assert (forall ((y_201 Nat_90))
	(gt_46 (S_90 y_201) Z_255)))
(assert (forall ((x_2464 Nat_90) (y_201 Nat_90))
	(=> (gt_46 x_2464 y_201)
	    (gt_46 (S_90 x_2464) (S_90 y_201)))))
(assert (forall ((y_201 Nat_90))
	(mult_46 Z_255 Z_255 y_201)))
(assert (forall ((x_2464 Nat_90) (y_201 Nat_90) (r_46 Nat_90) (z_256 Nat_90))
	(=>	(and (mult_46 r_46 x_2464 y_201)
			(add_46 z_256 r_46 y_201))
		(mult_46 z_256 (S_90 x_2464) y_201))))
(assert (forall ((x_2464 Nat_90) (y_201 Nat_90))
	(=> (lt_46 x_2464 y_201)
	    (div_46 Z_255 x_2464 y_201))))
(assert (forall ((x_2464 Nat_90) (y_201 Nat_90) (r_46 Nat_90) (z_256 Nat_90))
	(=>	(and (ge_46 x_2464 y_201)
			(minus_46 z_256 x_2464 y_201)
			(div_46 r_46 z_256 y_201))
		(div_46 (S_90 r_46) x_2464 y_201))))
(assert (forall ((x_2464 Nat_90) (y_201 Nat_90))
	(=> (lt_46 x_2464 y_201)
	    (mod_46 x_2464 x_2464 y_201))))
(assert (forall ((x_2464 Nat_90) (y_201 Nat_90) (r_46 Nat_90) (z_256 Nat_90))
	(=>	(and (ge_46 x_2464 y_201)
			(minus_46 z_256 x_2464 y_201)
			(mod_46 r_46 z_256 y_201))
		(mod_46 r_46 x_2464 y_201))))
(declare-datatypes ((list_41 0)) (((nil_41 ) (cons_41 (head_82 Nat_90) (tail_82 list_41)))))
(declare-fun diseqlist_41 (list_41 list_41) Bool)
(declare-fun head_83 (Nat_90 list_41) Bool)
(declare-fun tail_83 (list_41 list_41) Bool)
(declare-fun isnil_41 (list_41) Bool)
(declare-fun iscons_41 (list_41) Bool)
(assert (forall ((x_2466 Nat_90) (x_2467 list_41))
	(head_83 x_2466 (cons_41 x_2466 x_2467))))
(assert (forall ((x_2466 Nat_90) (x_2467 list_41))
	(tail_83 x_2467 (cons_41 x_2466 x_2467))))
(assert (isnil_41 nil_41))
(assert (forall ((x_2469 Nat_90) (x_2470 list_41))
	(iscons_41 (cons_41 x_2469 x_2470))))
(assert (forall ((x_2471 Nat_90) (x_2472 list_41))
	(diseqlist_41 nil_41 (cons_41 x_2471 x_2472))))
(assert (forall ((x_2473 Nat_90) (x_2474 list_41))
	(diseqlist_41 (cons_41 x_2473 x_2474) nil_41)))
(assert (forall ((x_2475 Nat_90) (x_2476 list_41) (x_2477 Nat_90) (x_2478 list_41))
	(=> (diseqNat_90 x_2475 x_2477)
	    (diseqlist_41 (cons_41 x_2475 x_2476) (cons_41 x_2477 x_2478)))))
(assert (forall ((x_2475 Nat_90) (x_2476 list_41) (x_2477 Nat_90) (x_2478 list_41))
	(=> (diseqlist_41 x_2476 x_2478)
	    (diseqlist_41 (cons_41 x_2475 x_2476) (cons_41 x_2477 x_2478)))))
(declare-datatypes ((Nat_89 0)) (((Z_251 ) (S_89 (projS_86 Nat_89)))))
(declare-fun diseqNat_89 (Nat_89 Nat_89) Bool)
(declare-fun projS_87 (Nat_89 Nat_89) Bool)
(declare-fun isZ_89 (Nat_89) Bool)
(declare-fun isS_89 (Nat_89) Bool)
(assert (forall ((x_2480 Nat_89))
	(projS_87 x_2480 (S_89 x_2480))))
(assert (isZ_89 Z_251))
(assert (forall ((x_2482 Nat_89))
	(isS_89 (S_89 x_2482))))
(assert (forall ((x_2483 Nat_89))
	(diseqNat_89 Z_251 (S_89 x_2483))))
(assert (forall ((x_2484 Nat_89))
	(diseqNat_89 (S_89 x_2484) Z_251)))
(assert (forall ((x_2485 Nat_89) (x_2486 Nat_89))
	(=> (diseqNat_89 x_2485 x_2486)
	    (diseqNat_89 (S_89 x_2485) (S_89 x_2486)))))
(declare-fun take_8 (list_41 Nat_89 list_41) Bool)
(assert (forall ((x_2451 list_41) (x_2443 Nat_90) (x_2444 list_41) (z_252 Nat_89))
	(=> (take_8 x_2451 z_252 x_2444)
	    (take_8 (cons_41 x_2443 x_2451) (S_89 z_252) (cons_41 x_2443 x_2444)))))
(assert (forall ((z_252 Nat_89))
	(take_8 nil_41 (S_89 z_252) nil_41)))
(assert (forall ((y_198 list_41))
	(take_8 nil_41 Z_251 y_198)))
(declare-fun drop_8 (list_41 Nat_89 list_41) Bool)
(assert (forall ((x_2454 list_41) (x_2446 Nat_90) (x_2447 list_41) (z_253 Nat_89))
	(=> (drop_8 x_2454 z_253 x_2447)
	    (drop_8 x_2454 (S_89 z_253) (cons_41 x_2446 x_2447)))))
(assert (forall ((z_253 Nat_89))
	(drop_8 nil_41 (S_89 z_253) nil_41)))
(assert (forall ((x_2457 list_41))
	(drop_8 x_2457 Z_251 x_2457)))
(declare-fun x_2448 (list_41 list_41 list_41) Bool)
(assert (forall ((x_2459 list_41) (z_254 Nat_90) (xs_72 list_41) (y_200 list_41))
	(=> (x_2448 x_2459 xs_72 y_200)
	    (x_2448 (cons_41 z_254 x_2459) (cons_41 z_254 xs_72) y_200))))
(assert (forall ((x_2460 list_41))
	(x_2448 x_2460 nil_41 x_2460)))
(assert (forall ((x_2461 list_41) (x_2462 list_41) (x_2463 list_41) (n_19 Nat_89) (xs_73 list_41))
	(=>	(and true
			(diseqlist_41 x_2463 xs_73)
			(take_8 x_2461 n_19 xs_73)
			(drop_8 x_2462 n_19 xs_73)
			(x_2448 x_2463 x_2461 x_2462))
		false)))
(check-sat)
